* RELOC.INP:
*--- input file selection
* cross correlation diff times:
dt.cc
*
*catalog P diff times:
dt.ct
*
* event file:
event.sel
*
* station file:
station.dat
*
*--- output file selection
* original locations:
hypoDD.loc
* relocations:
hypoDD.reloc
* station information:
hypoDD.sta
* residual information:
hypoDD.res
* source paramater information:
hypoDD.src
*
*--- data type selection: 
* IDAT:  0 = synthetics; 1= cross corr; 2= catalog; 3= cross & cat 
* IPHA: 1= P; 2= S; 3= P&S
* DIST:max dist [km] between cluster centroid and station 
* IDAT   IPHA   DIST
    2     3     120
*
*--- event clustering:
* OBSCC:    min # of obs/pair for crosstime data (0= no clustering)
* OBSCT:    min # of obs/pair for network data (0= no clustering)
* OBSCC  OBSCT    
     0     8        
*
*--- solution control:
* ISTART:  	1 = from single source; 2 = from network sources
* ISOLV:	1 = SVD, 2=lsqr
* NSET:      	number of sets of iteration with specifications following
*  ISTART  ISOLV  NSET
    2        2      4
*
*--- data weighting and re-weighting: 
* NITER: 		last iteration to used the following weights
* WTCCP, WTCCS:		weight cross P, S 
* WTCTP, WTCTS:		weight catalog P, S 
* WRCC, WRCT:		residual threshold in sec for cross, catalog data 
* WDCC, WDCT:  		max dist [km] between cross, catalog linked pairs
* DAMP:    		damping (for lsqr only) 
*       ---  CROSS DATA ----- ----CATALOG DATA ----
* NITER WTCCP WTCCS WRCC WDCC WTCTP WTCTS WRCT WDCT DAMP
   4     -9     -9   -9    -9   1     1      8   -9  70 
   4     -9     -9   -9    -9   1     1      6    4  70 
   4     -9     -9   -9    -9   1    0.8     4    2  70 
   4     -9     -9   -9    -9   1    0.8     3    2  70 
*
*--- 1D model:
* NLAY:		number of model layers  
* RATIO:	vp/vs ratio 
* TOP:		depths of top of layer (km) 
* VEL: 		layer velocities (km/s)
* NLAY  RATIO 
   9     2.60
* TOP 
0.0 4.0 6.0 10.0 16.0 20.0 25.0 35.0 40.0
* VEL
5.04 5.40 5.76 5.88 6.16 6.54 6.83 7.47 8.15
*
*--- event selection:
* CID: 	cluster to be relocated (0 = all)
* ID:	cuspids of event to be relocated (8 per line)
* CID    
    0      
* ID
